LengthSchedulingHorizon=2019;
nAttributes=2;
SetupCosts=[[0, 0], [2, 2], [2, 2]];
SetupTimes=[[0, 0], [0, 0], [0, 0]];
nMachines=2;
MinCap=[0, 0];
MaxCap=[20, 20];

initState=[2, 2];
nShifts=5;
ShiftStartTimes = [[0, 3, 791, 1635, 1783], [427, 476, 1253, 1542, 1934]];
ShiftEndTimes = [[0, 713, 1524, 1773, 1963], [471, 1096, 1499, 1934, 2017]];
nJobs=250;
EligibleMachines = [{1, 2}, {2}, {2}, {1, 2}, {2}, {1}, {1}, {2}, {2}, {1}, {2}, {1}, {1}, {2}, {2}, {1}, {1, 2}, {1}, {1}, {2}, {2}, {1}, {1, 2}, {2}, {2}, {1}, {1}, {1, 2}, {1, 2}, {2}, {2}, {1, 2}, {2}, {1, 2}, {1}, {1, 2}, {2}, {2}, {1}, {1, 2}, {2}, {1}, {1, 2}, {1}, {2}, {2}, {2}, {2}, {1}, {1}, {1, 2}, {1}, {1}, {1, 2}, {1, 2}, {1, 2}, {1, 2}, {1}, {1, 2}, {1}, {1}, {1, 2}, {1, 2}, {1}, {1, 2}, {2}, {1}, {1}, {1}, {1, 2}, {2}, {1, 2}, {1}, {1, 2}, {1, 2}, {1, 2}, {1, 2}, {2}, {2}, {1}, {1, 2}, {1}, {1, 2}, {1, 2}, {1}, {1}, {1, 2}, {1, 2}, {1, 2}, {1, 2}, {1}, {1, 2}, {1, 2}, {1, 2}, {2}, {1}, {1, 2}, {1}, {1, 2}, {1, 2}, {1, 2}, {1, 2}, {2}, {2}, {2}, {1, 2}, {2}, {1, 2}, {2}, {1, 2}, {1, 2}, {1, 2}, {1}, {1, 2}, {2}, {1}, {1, 2}, {1, 2}, {1}, {2}, {1, 2}, {1, 2}, {1, 2}, {1, 2}, {1, 2}, {1, 2}, {1, 2}, {1, 2}, {1}, {1}, {1, 2}, {1, 2}, {2}, {2}, {2}, {1}, {1, 2}, {1, 2}, {1, 2}, {1, 2}, {1, 2}, {1, 2}, {2}, {1}, {2}, {1, 2}, {2}, {2}, {1, 2}, {1}, {2}, {1, 2}, {1, 2}, {1, 2}, {1, 2}, {1}, {1, 2}, {1, 2}, {2}, {2}, {2}, {1}, {2}, {1}, {1, 2}, {1, 2}, {1, 2}, {1, 2}, {1, 2}, {1}, {1, 2}, {2}, {1}, {1, 2}, {1, 2}, {1}, {1, 2}, {2}, {1, 2}, {1, 2}, {1}, {1}, {1, 2}, {2}, {2}, {2}, {1, 2}, {1, 2}, {1, 2}, {1}, {2}, {1}, {1}, {1, 2}, {1, 2}, {1, 2}, {2}, {1, 2}, {2}, {1}, {1}, {1, 2}, {1, 2}, {1, 2}, {1, 2}, {1, 2}, {1, 2}, {1, 2}, {1, 2}, {1}, {1, 2}, {1, 2}, {1}, {2}, {2}, {1, 2}, {1}, {1, 2}, {2}, {2}, {1, 2}, {1, 2}, {1}, {1, 2}, {1}, {2}, {1}, {2}, {1}, {2}, {2}, {1, 2}, {1, 2}, {1, 2}, {1, 2}, {1, 2}, {1, 2}, {1, 2}, {2}, {2}, {1, 2}, {2}, {1, 2}, {1, 2}, {2}, {2}, {1, 2}, {1, 2}, {1}, {1, 2}];
EarliestStart=[92, 96, 110, 38, 96, 104, 48, 134, 114, 93, 29, 43, 95, 61, 11, 116, 71, 106, 16, 36, 50, 92, 87, 44, 57, 116, 137, 63, 7, 3, 116, 43, 103, 1, 112, 110, 53, 80, 16, 129, 96, 3, 76, 5, 62, 5, 80, 121, 72, 3, 62, 88, 122, 84, 24, 141, 9, 65, 122, 121, 109, 127, 127, 111, 118, 127, 82, 93, 91, 43, 62, 132, 89, 29, 81, 47, 15, 81, 123, 52, 35, 16, 132, 3, 82, 27, 63, 18, 119, 112, 100, 129, 100, 36, 20, 111, 17, 107, 29, 77, 65, 128, 30, 29, 83, 71, 141, 92, 3, 119, 126, 69, 84, 70, 86, 93, 136, 123, 28, 90, 63, 64, 116, 120, 85, 74, 32, 52, 9, 112, 29, 50, 52, 45, 128, 48, 127, 103, 62, 11, 28, 112, 15, 0, 128, 30, 45, 29, 92, 69, 117, 36, 78, 80, 13, 1, 12, 52, 85, 8, 39, 88, 83, 32, 89, 75, 17, 38, 83, 37, 107, 32, 60, 17, 62, 92, 49, 115, 134, 54, 29, 2, 102, 82, 136, 135, 113, 113, 32, 127, 36, 75, 17, 54, 113, 82, 29, 124, 52, 52, 13, 6, 87, 55, 103, 84, 117, 60, 18, 62, 93, 38, 59, 31, 120, 36, 128, 1, 38, 96, 104, 45, 6, 97, 0, 32, 14, 6, 46, 121, 63, 67, 63, 81, 40, 22, 56, 46, 120, 52, 17, 53, 95, 111, 33, 139, 15, 128, 75, 76];
LatestEnd=[103, 101, 111, 54, 102, 106, 51, 137, 123, 106, 44, 44, 100, 74, 24, 126, 72, 121, 25, 37, 53, 93, 100, 47, 59, 121, 140, 67, 8, 11, 118, 46, 114, 9, 119, 118, 65, 90, 17, 141, 109, 7, 94, 20, 73, 16, 91, 126, 79, 9, 72, 91, 141, 87, 41, 151, 15, 80, 133, 124, 119, 140, 128, 129, 127, 134, 89, 102, 101, 45, 71, 136, 99, 38, 86, 59, 16, 94, 131, 55, 44, 26, 144, 12, 93, 28, 68, 29, 133, 127, 101, 144, 118, 49, 21, 122, 20, 108, 42, 80, 74, 129, 44, 36, 96, 77, 146, 96, 14, 132, 134, 79, 90, 77, 98, 95, 141, 134, 36, 107, 68, 74, 128, 129, 86, 90, 37, 55, 15, 124, 42, 51, 54, 48, 140, 55, 140, 106, 72, 12, 36, 124, 26, 1, 132, 37, 53, 38, 93, 86, 126, 48, 90, 95, 27, 16, 15, 53, 91, 16, 42, 91, 92, 33, 107, 85, 25, 41, 93, 40, 110, 33, 75, 21, 63, 98, 64, 130, 143, 62, 37, 12, 105, 90, 139, 139, 120, 116, 34, 143, 40, 85, 26, 56, 124, 93, 43, 133, 53, 65, 14, 10, 96, 64, 120, 91, 132, 65, 35, 73, 112, 45, 66, 43, 124, 41, 129, 6, 49, 107, 105, 50, 7, 114, 16, 35, 19, 13, 57, 126, 68, 70, 73, 92, 50, 23, 68, 50, 129, 60, 23, 56, 99, 118, 49, 158, 22, 139, 87, 85];
MinTime=[7, 3, 1, 9, 6, 2, 2, 2, 5, 10, 8, 1, 4, 10, 7, 6, 1, 9, 6, 1, 3, 1, 8, 3, 2, 4, 2, 3, 1, 5, 2, 3, 8, 7, 5, 6, 7, 7, 1, 10, 7, 3, 10, 8, 9, 9, 8, 4, 7, 6, 10, 2, 10, 2, 9, 7, 6, 8, 7, 3, 10, 9, 1, 10, 9, 6, 4, 7, 6, 2, 9, 4, 9, 6, 5, 10, 1, 10, 5, 3, 6, 9, 7, 6, 6, 1, 3, 6, 9, 8, 1, 9, 10, 8, 1, 8, 2, 1, 9, 3, 6, 1, 9, 6, 7, 6, 3, 4, 8, 9, 6, 6, 4, 5, 8, 2, 3, 6, 5, 9, 4, 8, 9, 8, 1, 10, 4, 2, 6, 7, 9, 1, 2, 2, 7, 5, 10, 2, 9, 1, 8, 9, 9, 1, 3, 5, 6, 6, 1, 10, 6, 7, 7, 10, 10, 9, 3, 1, 5, 7, 2, 2, 9, 1, 10, 6, 5, 2, 8, 3, 2, 1, 8, 4, 1, 5, 9, 9, 6, 7, 5, 9, 2, 6, 2, 3, 5, 2, 2, 9, 3, 10, 8, 2, 9, 7, 10, 8, 1, 8, 1, 4, 9, 8, 9, 5, 9, 3, 9, 6, 10, 4, 6, 8, 3, 4, 1, 4, 10, 8, 1, 3, 1, 10, 10, 2, 3, 6, 6, 5, 5, 2, 9, 8, 7, 1, 10, 4, 7, 7, 4, 3, 3, 6, 9, 10, 4, 10, 9, 6];
MaxTime=[10, 10, 10, 10, 10, 10, 10, 10, 10, 10, 10, 10, 10, 10, 10, 10, 10, 10, 10, 10, 10, 10, 10, 10, 10, 10, 10, 10, 10, 10, 10, 10, 10, 10, 10, 10, 10, 10, 10, 10, 10, 10, 10, 10, 10, 10, 10, 10, 10, 10, 10, 10, 10, 10, 10, 10, 10, 10, 10, 10, 10, 10, 10, 10, 10, 10, 10, 10, 10, 10, 10, 10, 10, 10, 10, 10, 10, 10, 10, 10, 10, 10, 10, 10, 10, 10, 10, 10, 10, 10, 10, 10, 10, 10, 10, 10, 10, 10, 10, 10, 10, 10, 10, 10, 10, 10, 10, 10, 10, 10, 10, 10, 10, 10, 10, 10, 10, 10, 10, 10, 10, 10, 10, 10, 10, 10, 10, 10, 10, 10, 10, 10, 10, 10, 10, 10, 10, 10, 10, 10, 10, 10, 10, 10, 10, 10, 10, 10, 10, 10, 10, 10, 10, 10, 10, 10, 10, 10, 10, 10, 10, 10, 10, 10, 10, 10, 10, 10, 10, 10, 10, 10, 10, 10, 10, 10, 10, 10, 10, 10, 10, 10, 10, 10, 10, 10, 10, 10, 10, 10, 10, 10, 10, 10, 10, 10, 10, 10, 10, 10, 10, 10, 10, 10, 10, 10, 10, 10, 10, 10, 10, 10, 10, 10, 10, 10, 10, 10, 10, 10, 10, 10, 10, 10, 10, 10, 10, 10, 10, 10, 10, 10, 10, 10, 10, 10, 10, 10, 10, 10, 10, 10, 10, 10, 10, 10, 10, 10, 10, 10];
JobSize=[14, 8, 6, 19, 19, 9, 16, 19, 7, 16, 17, 3, 8, 2, 9, 1, 9, 3, 14, 20, 1, 6, 19, 10, 1, 2, 9, 14, 17, 10, 9, 10, 4, 16, 14, 9, 12, 19, 3, 19, 9, 8, 19, 4, 3, 10, 5, 20, 16, 5, 11, 16, 16, 1, 11, 14, 3, 12, 14, 15, 15, 3, 4, 5, 16, 6, 11, 15, 17, 18, 10, 15, 12, 17, 18, 8, 13, 13, 6, 10, 10, 16, 15, 13, 17, 6, 5, 14, 10, 17, 14, 9, 9, 5, 13, 4, 14, 15, 17, 15, 20, 14, 20, 16, 20, 7, 1, 14, 11, 7, 17, 7, 12, 4, 1, 7, 10, 6, 18, 3, 20, 17, 19, 9, 5, 18, 16, 9, 16, 7, 7, 13, 1, 14, 4, 18, 10, 3, 5, 3, 16, 8, 9, 9, 7, 12, 14, 11, 14, 6, 1, 5, 7, 17, 16, 15, 3, 15, 15, 2, 10, 1, 4, 10, 8, 19, 18, 8, 9, 2, 20, 5, 3, 11, 13, 1, 11, 10, 13, 20, 3, 10, 16, 13, 12, 1, 2, 3, 20, 4, 5, 6, 12, 17, 13, 20, 20, 10, 17, 20, 11, 4, 9, 15, 1, 16, 12, 11, 11, 3, 8, 16, 12, 14, 5, 2, 11, 18, 14, 11, 4, 8, 20, 9, 10, 11, 10, 7, 10, 14, 17, 18, 16, 13, 17, 4, 20, 13, 11, 5, 3, 13, 14, 12, 16, 17, 12, 5, 13, 11];
Attribute=[1, 2, 2, 2, 2, 1, 2, 1, 1, 1, 1, 2, 1, 1, 2, 1, 1, 1, 2, 2, 1, 1, 1, 2, 1, 1, 2, 2, 1, 2, 2, 1, 1, 2, 1, 2, 2, 2, 1, 1, 1, 1, 1, 2, 2, 1, 2, 2, 2, 1, 2, 1, 2, 2, 2, 2, 2, 1, 2, 1, 1, 1, 1, 2, 1, 2, 2, 1, 2, 2, 1, 1, 2, 2, 1, 2, 2, 2, 1, 1, 2, 2, 2, 1, 1, 2, 1, 1, 2, 2, 1, 2, 2, 2, 2, 1, 1, 1, 1, 1, 2, 2, 2, 2, 1, 2, 2, 1, 2, 1, 1, 2, 1, 2, 1, 2, 1, 2, 1, 1, 2, 2, 1, 1, 1, 1, 1, 2, 2, 1, 2, 1, 2, 1, 1, 2, 2, 1, 1, 1, 1, 1, 2, 2, 1, 1, 1, 2, 2, 1, 2, 2, 1, 1, 2, 1, 1, 2, 2, 1, 2, 2, 2, 2, 2, 2, 1, 1, 2, 1, 2, 1, 1, 2, 1, 2, 2, 2, 1, 2, 2, 1, 1, 1, 1, 1, 1, 2, 1, 1, 2, 1, 2, 2, 1, 2, 1, 2, 2, 2, 2, 1, 2, 2, 2, 2, 2, 1, 2, 2, 1, 1, 1, 2, 2, 2, 2, 2, 1, 1, 2, 2, 2, 2, 2, 1, 1, 2, 2, 1, 2, 1, 2, 2, 1, 2, 1, 2, 2, 1, 2, 1, 2, 2, 1, 2, 1, 2, 2, 2];

upper_bound_integer_objective=157500;
mult_factor_total_runtime=4;
mult_factor_finished_toolate=600;
mult_factor_total_setuptimes=0;
mult_factor_total_setupcosts=3;
running_time_bound=1408;
min_duration=1;
max_duration=10;
max_setup_time=0;
max_setup_cost=2;
